Data path: /scratch/opt/lxu/CFLG/benchmarks/random_B
Instance: r_25_0.2_58.txt
Result path: /scratch/opt/lxu/CFLG/results/random_B
Solver: Gurobi
Time limit: 7200
Formulation: LEFPV
Cover: Large
julia --project=. src/main.jl /scratch/opt/lxu/CFLG/benchmarks/random_B r_25_0.2_58.txt /scratch/opt/lxu/CFLG/results/random_B Gurobi 7200 LEFPV Large
The latest version of Julia in the `release` channel is 1.11.5+0.x64.linux.gnu. You currently have `1.11.4+0.x64.linux.gnu` installed. Run:

  juliaup update

in your terminal shell to install Julia 1.11.5+0.x64.linux.gnu and update the `release` channel to that version.
/scratch/opt/lxu/CFLG/benchmarks/random_B Gurobi 7200.0 /scratch/opt/lxu/CFLG/results/random_B r_25_0.2_58.txt LEFPV Large
/scratch/opt/lxu/CFLG/benchmarks/random_B/r_25_0.2_58.txt

 read graph
data loaded

problem_graph/original graph: node: 25/25 edge: 58/58 dlt: 1.3662485762083236 break_avg_len: 0.6831242881041618 break_max_len: 0.9946460943203358Set parameter TokenServer to value "solice01.zib.de"
Set parameter Threads to value 1
Set parameter OutputFlag to value 1
Gurobi Optimizer version 12.0.1 build v12.0.1rc0 (linux64 - "Debian GNU/Linux 12 (bookworm)")

CPU model: Intel(R) Xeon(R) Gold 5122 CPU @ 3.60GHz, instruction set [SSE2|AVX|AVX2|AVX512]
Thread count: 8 physical cores, 16 logical processors, using up to 1 threads

Non-default parameters:
Threads  1

Optimize a model with 83 rows, 174 columns and 290 nonzeros
Model fingerprint: 0xc8751e0d
Coefficient statistics:
  Matrix range     [1e+00, 1e+00]
  Objective range  [1e+00, 1e+00]
  Bounds range     [1e+00, 1e+00]
  RHS range        [1e+00, 1e+00]
Presolve removed 83 rows and 174 columns
Presolve time: 0.02s
Presolve: All rows and columns removed
Iteration    Objective       Primal Inf.    Dual Inf.      Time
       0    1.0000000e+00   0.000000e+00   0.000000e+00      0s

Solved in 0 iterations and 0.02 seconds (0.00 work units)
Optimal objective  1.000000000e+00

User-callback calls 35, time in user-callback 0.01 sec
elapsed CPU time: 1.226652 seconds
Set parameter TokenServer to value "solice01.zib.de"
Set parameter Threads to value 1
Set parameter OutputFlag to value 1
Set parameter MIPGap to value 0.0001
Set parameter MIPGapAbs to value 0.999998
Set parameter TimeLimit to value 7198.773348

 more cuts:falsefalse
1 0
formulation:LEFPV0 58 25
Set parameter PreCrush to value 1

 model loaded

Gurobi Optimizer version 12.0.1 build v12.0.1rc0 (linux64 - "Debian GNU/Linux 12 (bookworm)")

CPU model: Intel(R) Xeon(R) Gold 5122 CPU @ 3.60GHz, instruction set [SSE2|AVX|AVX2|AVX512]
Thread count: 8 physical cores, 16 logical processors, using up to 1 threads

Non-default parameters:
TimeLimit  7198.773348
MIPGapAbs  0.999998
PreCrush  1
Threads  1

Optimize a model with 3884 rows, 1958 columns and 11467 nonzeros
Model fingerprint: 0xaa79c353
Variable types: 141 continuous, 1817 integer (1817 binary)
Coefficient statistics:
  Matrix range     [1e-06, 2e+00]
  Objective range  [1e+00, 1e+00]
  Bounds range     [3e-01, 1e+00]
  RHS range        [3e-01, 6e+00]
Found heuristic solution: objective 10.0000000
Presolve removed 706 rows and 93 columns
Presolve time: 0.04s
Presolved: 3178 rows, 1865 columns, 10538 nonzeros
Variable types: 82 continuous, 1783 integer (1783 binary)

Root relaxation: objective 6.933859e-01, 1380 iterations, 0.04 seconds (0.07 work units)

    Nodes    |    Current Node    |     Objective Bounds      |     Work
 Expl Unexpl |  Obj  Depth IntInf | Incumbent    BestBd   Gap | It/Node Time

     0     0    0.69339    0  123   10.00000    0.69339  93.1%     -    0s
     0     0    1.00000    0  130   10.00000    1.00000  90.0%     -    0s
H    0     0                       9.0000000    1.00000  88.9%     -    0s
H    0     0                       8.0000000    1.00000  87.5%     -    0s
elapsed CPU time: 1.3859174704671703e13 seconds
     0     0    1.41401    0  223    8.00000    1.41401  82.3%     -    0s
H    0     0                       7.0000000    1.44698  79.3%     -    0s
H    0     0                       6.0000000    1.44698  75.9%     -    0s
H    0     0                       5.0000000    1.44698  71.1%     -    0s
elapsed CPU time: 0.046831 seconds
     0     0    1.44698    0  221    5.00000    1.44698  71.1%     -    1s
elapsed CPU time: 0.011642 seconds
     0     0    1.53034    0  255    5.00000    1.53034  69.4%     -    1s
elapsed CPU time: 1.279900265652e6 seconds
     0     0    1.53136    0  268    5.00000    1.53136  69.4%     -    1s
elapsed CPU time: 0.011743 seconds
     0     0    1.53136    0  291    5.00000    1.53136  69.4%     -    1s
elapsed CPU time: 1.8446744069414598e13 seconds
     0     0    1.53136    0  289    5.00000    1.53136  69.4%     -    1s
elapsed CPU time: 4.630172244864168e12 seconds
     0     0    1.71813    0  244    5.00000    1.71813  65.6%     -    1s
H    0     0                       4.0000000    1.72020  57.0%     -    1s
elapsed CPU time: 0.011763 seconds
     0     0    1.72020    0  246    4.00000    1.72020  57.0%     -    1s
elapsed CPU time: 0.01107 seconds
     0     0    1.80119    0  217    4.00000    1.80119  55.0%     -    1s
elapsed CPU time: 4.616190893660057e12 seconds
     0     0    1.80645    0  224    4.00000    1.80645  54.8%     -    1s
elapsed CPU time: 103079.22607 seconds
     0     0    1.80645    0  225    4.00000    1.80645  54.8%     -    1s
elapsed CPU time: 1.3867888467465227e13 seconds
     0     0    1.80645    0  210    4.00000    1.80645  54.8%     -    1s
elapsed CPU time: 0.010706 seconds
     0     0    1.81321    0  223    4.00000    1.81321  54.7%     -    1s
elapsed CPU time: 0.010566 seconds
     0     0    1.81321    0  227    4.00000    1.81321  54.7%     -    1s
elapsed CPU time: 1.3867888467465225e13 seconds
     0     0    1.81321    0  165    4.00000    1.81321  54.7%     -    1s
elapsed CPU time: 0.011409 seconds
elapsed CPU time: 0.014921 seconds
     0     2    2.00000    0  190    4.00000    2.00000  50.0%     -    2s
   709   414    2.33333   13  165    4.00000    2.08621  47.8%  66.2    5s
   727   426    2.42390   40  237    4.00000    2.08621  47.8%  64.6   10s
   855   447    2.55792   22   64    4.00000    2.14188  46.5%   109   15s
  1117   413    2.31047   27  189    4.00000    2.29592  42.6%   118   20s
  1506   409    3.00000   29   60    4.00000    2.43142  39.2%   114   25s
  1975   327    2.83333   30   49    4.00000    2.57141  35.7%   113   30s
  2741   266    3.00000   48   46    4.00000    3.00000  25.0%   101   35s
  3271   115    3.00000   37  106    4.00000    3.00000  25.0%   100   40s
  3880    99    3.00000   28  127    4.00000    3.00000  25.0%  99.1   45s

Cutting planes:
  User: 1
  Learned: 2
  Cover: 47
  Implied bound: 13
  Clique: 4
  MIR: 21
  StrongCG: 6
  Flow cover: 15
  GUB cover: 40
  Zero half: 12
  RLT: 9
  Relax-and-lift: 2

Explored 4146 nodes (420141 simplex iterations) in 46.74 seconds (55.46 work units)
Thread count was 1 (of 16 available processors)

Solution count 8: 4 4 5 ... 10

Optimal solution found (tolerance 1.00e-04)
Best objective 4.000000000000e+00, best bound 4.000000000000e+00, gap 0.0000%

User-callback calls 22748, time in user-callback 1.73 sec

 sepatime6.92880602305206e13 36548 17
4.0Stat(MathOptInterface.OPTIMAL, 4.0, 4.0, 0.0, 6.92880602305206e13, 1.226652, 46.743348121643066, 4146, Main.CFLG.LEFPV, "", #undef)
